1	3	1	2	7	15	0	0	0	0	0	0
2000	1	0	0	0	0	0	0	0	0	0	0
250	1	0	60.63	0.49	1	0	0	0	0	0	0
250	1	0	60.63	0.49	1	0	0	0	0	0	0
250     1       0       60.63   0.49    1       0       0       0       0       0       0
50	150	0	0	0	0	1000	0	0	99999	0	0
50	75	0	0	0	0	1000	0	0	99999	0	0
50	25	0	0	0	0	1000	0	0	99999	0	0
50	75	0	0	0	0	1000	0	0	0	0	0
50	25	0	0	0	0	1000	0	0	0	0	0
15	42	0	0	0	0	1000	0	0	0	0	0
21	22	0	0	0	0	1000	0	0	0	0	0
34	16	0	0	0	0	1000	0	0	0	0	0
64	19	0	0	0	0	1000	0	0	0	0	0
28      62      0       0       0       0       1000    0       0       0       0       0
57	48	23	19	4	116	1080	10	0	0	0	0
11	14	18	14	4	158	294	10	0	0	0	0
55	5	29	3	26	169	349	10	0	0	0	0
5	5	16	16	0	116	1063	10	0	0	0	0
65	20	6	2	4	534	648	10	0	0	0	0
42	7	5	1	4	898	1028	10	0	0	0	0
37	56	5	3	2	116	1084	10	0	0	0	0
16	22	41	30	11	668	860	10	0	0	0	0
28	18	26	17	9	646	684	10	0	0	0	0
2	48	1	0	1	162	298	10	0	0	0	0
12	24	13	7	6	445	667	10	0	0	0	0
13	52	36	9	27	534	674	10	0	0	0	0
24	12	5	3	2	116	1080	10	0	0	0	0
47	16	25	9	16	220	368	10	0	0	0	0
20	65	12	4	8	116	1072	10	0	0	0	0
